\ENCODING=ISO-8859-1
\Problem name: IloCplex

Minimize
 obj1: 2 x_a_0 + 3 x_a_1 + 2 x_a_2 + 2 x_a_3 + 3 x_a_4 + x_a_5 + 3 x_a_6
       + x_a_7 + 2 x_a_8 + 2 x_a_9 + 3 x_a_10 + 2 x_a_11 + 2 x_a_12 + 2 x_a_13
       + x_a_14 + 3 x_a_15 + 2 x_a_16 + x_a_17 + x_a_18 + 3 x_a_19 + 2 x_a_20
       + 3 x_a_21 + 3 x_a_22 + x_a_23 + 3 x_a_24 + 3 x_a_25 + 3 x_a_26
       + 2 x_a_27 + 2 x_a_28 + x_a_29 + 2 x_a_30 + 3 x_a_31 + 2 x_a_32 + x_a_33
       + 2 x_a_34 + x_a_35 + x_a_36 + x_a_37 + 2 x_a_38 + x_a_39 + 2 x_a_40
       + 2 x_a_41 + x_a_42 + 3 x_a_43 + 2 x_a_44 + 2 x_a_45 + 2 x_a_46
       + 3 x_a_47 + x_a_48 + 3 x_a_49 + 3 x_a_50 + 2 x_a_51 + 2 x_a_52
       + 3 x_a_53 + 2 x_a_54 + 3 x_a_55 + x_a_56 + x_a_57 + 2 x_a_58 + 2 x_a_59
       + 2 x_a_60 + 3 x_a_61 + 2 x_a_62 + 2 x_a_63 + 3 x_a_64 + x_a_65 + x_a_66
       + x_a_67 + 3 x_a_68 + 3 x_a_69 + 2 x_a_70 + x_a_71 + 2 x_a_72 + x_a_73
       + 3 x_a_74 + 3 x_a_75 + 2 x_a_76 + x_a_77 + 2 x_a_78 + 2 x_a_79 + x_a_80
       + 3 x_a_81 + 3 x_a_82 + x_a_83 + 3 x_a_84 + 2 x_a_85 + 1000000000 x_a_86
       + 1000000000 x_a_87 + 1000000000 x_a_88 + 1000000000 x_a_89
       + 1000000000 x_a_90 + 1000000000 x_a_91 + 1000000000 x_a_92
       + 1000000000 x_a_93 + 1000000000 x_a_94 + 1000000000 x_a_95
       + 1000000000 x_a_96 + 1000000000 x_a_97 + 1000000000 x_a_98
       + 1000000000 x_a_99 + 1000000000 x_a_100 + 1000000000 x_a_101
       + 10000 x_a_102
Subject To
 c1:   y_a_86 + y_a_87 + y_a_88 + y_a_89 + y_a_90 + y_a_91 + y_a_92 + y_a_93
       <= 79.8
 c2:   - y_a_90 + y_a_0 + y_a_1 + y_a_2 + y_a_3 + y_a_4  = 0
 c3:   - y_a_91 - y_a_0 + y_a_5 + y_a_6 + y_a_7 + y_a_8 + y_a_9 + y_a_10
       + y_a_11 + y_a_12 + y_a_13  = 0
 c4:   - y_a_5 + y_a_14 + y_a_15 + y_a_16 + y_a_17 + y_a_18  = 0
 c5:   - y_a_6 + y_a_19 + y_a_20 + y_a_21  = 0
 c6:   - y_a_88 - y_a_7 + y_a_22 + y_a_23 + y_a_24  = 0
 c7:   - y_a_1 - y_a_8 + y_a_25 + y_a_26 + y_a_27 + y_a_28 + y_a_29 + y_a_30
       + y_a_31  = 0
 c8:   - y_a_2 - y_a_14 + y_a_32 + y_a_33 + y_a_94 + y_a_95  = 0
 c9:   - y_a_89 - y_a_25 - y_a_32 + y_a_34 + y_a_35 + y_a_36 + y_a_37 + y_a_38
       + y_a_39  = 0
 c10:  - y_a_86 - y_a_93 - y_a_26 + y_a_40 + y_a_41 + y_a_42 + y_a_43  = 0
 c11:  - y_a_19 + y_a_44  = 0
 c12:  - y_a_22 + y_a_45 + y_a_46 + y_a_47 + y_a_48  = 0
 c13:  - y_a_9 - y_a_20 + y_a_49 + y_a_50 + y_a_51 + y_a_52  = 0
 c14:  - y_a_10 - y_a_49 + y_a_53 + y_a_54 + y_a_101  = 0
 c15:  - y_a_34 + y_a_55 + y_a_56 + y_a_57  = 0
 c16:  - y_a_92 - y_a_21 - y_a_27 - y_a_35 + y_a_58 + y_a_59  = 0
 c17:  - y_a_15 - y_a_44 - y_a_45 + y_a_60 + y_a_61 + y_a_62 + y_a_63  = 0
 c18:  - y_a_11 - y_a_60 + y_a_64 + y_a_65 + y_a_66 + y_a_67  = 0
 c19:  - y_a_16 - y_a_61 + y_a_68 + y_a_69  = 0
 c20:  - y_a_36 - y_a_46 + y_a_70 + y_a_71 + y_a_72  = 0
 c21:  - y_a_58 + y_a_98 + y_a_100  = 0
 c22:  - y_a_3 - y_a_55  = 0
 c23:  - y_a_12 - y_a_28 + y_a_73 + y_a_74  = 0
 c24:  - y_a_29 - y_a_53 - y_a_64 - y_a_73 + y_a_75 + y_a_76  = 0
 c25:  - y_a_17 - y_a_59 - y_a_70 + y_a_77  = 0
 c26:  - y_a_71  = 0
 c27:  - y_a_4 - y_a_37 - y_a_65 + y_a_78  = 0
 c28:  - y_a_13 - y_a_74 + y_a_79  = 0
 c29:  - y_a_38 - y_a_66 - y_a_68 + y_a_96  = 0
 c30:  - y_a_40 - y_a_47 - y_a_62 + y_a_80 + y_a_81 + y_a_82  = 0
 c31:  - y_a_33 - y_a_41 - y_a_50 - y_a_56 - y_a_79 - y_a_80 + y_a_97  = 0
 c32:  - y_a_42 - y_a_77 + y_a_83 + y_a_99  = 0
 c33:  - y_a_30 - y_a_48 - y_a_69 - y_a_75 + y_a_84  = 0
 c34:  - y_a_31 - y_a_43 - y_a_57  = 0
 c35:  - y_a_54 - y_a_72 - y_a_81  = 0
 c36:  - y_a_39 - y_a_76  = 0
 c37:  - y_a_87 - y_a_63 - y_a_67 - y_a_84  = 0
 c38:  - y_a_18 - y_a_23 - y_a_51 + y_a_85  = 0
 c39:  - y_a_24 - y_a_52 - y_a_78 - y_a_82 - y_a_83 - y_a_85  = 0
 c40:  y_a_86 + y_a_87 + y_a_88 + y_a_89 + y_a_90 + y_a_91 + y_a_92 + y_a_93
       - y_a_102  = 0
 c41:  - y_a_94 - y_a_95 - y_a_101 - y_a_98 - y_a_100 - y_a_96 - y_a_97
       - y_a_99 + y_a_102  = 0
 c42:  y_a_0 + 35 x_a_0 <= 35
 c43:  y_a_1 + 19 x_a_1 <= 19
 c44:  y_a_2 + 8 x_a_2 <= 8
 c45:  y_a_3 + 44 x_a_3 <= 44
 c46:  y_a_4 + 3 x_a_4 <= 3
 c47:  y_a_5 + 44 x_a_5 <= 44
 c48:  y_a_6 + 37 x_a_6 <= 37
 c49:  y_a_7 + 31 x_a_7 <= 31
 c50:  y_a_8 + 35 x_a_8 <= 35
 c51:  y_a_9 + 13 x_a_9 <= 13
 c52:  y_a_10 + 18 x_a_10 <= 18
 c53:  y_a_11 + 44 x_a_11 <= 44
 c54:  y_a_12 + 27 x_a_12 <= 27
 c55:  y_a_13 + 24 x_a_13 <= 24
 c56:  y_a_14 + 29 x_a_14 <= 29
 c57:  y_a_15 + 36 x_a_15 <= 36
 c58:  y_a_16 + 45 x_a_16 <= 45
 c59:  y_a_17 + 44 x_a_17 <= 44
 c60:  y_a_18 + 35 x_a_18 <= 35
 c61:  y_a_19 + 48 x_a_19 <= 48
 c62:  y_a_20 + 27 x_a_20 <= 27
 c63:  y_a_21 + 7 x_a_21 <= 7
 c64:  y_a_22 + 30 x_a_22 <= 30
 c65:  y_a_23 + 9 x_a_23 <= 9
 c66:  y_a_24 + 31 x_a_24 <= 31
 c67:  y_a_25 + 21 x_a_25 <= 21
 c68:  y_a_26 + 2 x_a_26 <= 2
 c69:  y_a_27 + 46 x_a_27 <= 46
 c70:  y_a_28 + 37 x_a_28 <= 37
 c71:  y_a_29 + 33 x_a_29 <= 33
 c72:  y_a_30 + 11 x_a_30 <= 11
 c73:  y_a_31 + 35 x_a_31 <= 35
 c74:  y_a_32 + 34 x_a_32 <= 34
 c75:  y_a_33 + 45 x_a_33 <= 45
 c76:  y_a_34 + 49 x_a_34 <= 49
 c77:  y_a_35 + 21 x_a_35 <= 21
 c78:  y_a_36 + 43 x_a_36 <= 43
 c79:  y_a_37 + 25 x_a_37 <= 25
 c80:  y_a_38 + 45 x_a_38 <= 45
 c81:  y_a_39 + 39 x_a_39 <= 39
 c82:  y_a_40 + 2 x_a_40 <= 2
 c83:  y_a_41 + 18 x_a_41 <= 18
 c84:  y_a_42 + 42 x_a_42 <= 42
 c85:  y_a_43 + 38 x_a_43 <= 38
 c86:  y_a_44 + 6 x_a_44 <= 6
 c87:  y_a_45 + 49 x_a_45 <= 49
 c88:  y_a_46 + 44 x_a_46 <= 44
 c89:  y_a_47 + 38 x_a_47 <= 38
 c90:  y_a_48 + 7 x_a_48 <= 7
 c91:  y_a_49 + 46 x_a_49 <= 46
 c92:  y_a_50 + 7 x_a_50 <= 7
 c93:  y_a_51 + 15 x_a_51 <= 15
 c94:  y_a_52 + 24 x_a_52 <= 24
 c95:  y_a_53 + 7 x_a_53 <= 7
 c96:  y_a_54 + 17 x_a_54 <= 17
 c97:  y_a_55 + 33 x_a_55 <= 33
 c98:  y_a_56 + 49 x_a_56 <= 49
 c99:  y_a_57 + 21 x_a_57 <= 21
 c100: y_a_58 + 38 x_a_58 <= 38
 c101: y_a_59 + 36 x_a_59 <= 36
 c102: y_a_60 + 38 x_a_60 <= 38
 c103: y_a_61 + 44 x_a_61 <= 44
 c104: y_a_62 + 13 x_a_62 <= 13
 c105: y_a_63 + 34 x_a_63 <= 34
 c106: y_a_64 + 26 x_a_64 <= 26
 c107: y_a_65 + 2 x_a_65 <= 2
 c108: y_a_66 + 11 x_a_66 <= 11
 c109: y_a_67 + 48 x_a_67 <= 48
 c110: y_a_68 + 40 x_a_68 <= 40
 c111: y_a_69 + 34 x_a_69 <= 34
 c112: y_a_70 + 39 x_a_70 <= 39
 c113: y_a_71 + 42 x_a_71 <= 42
 c114: y_a_72 + 11 x_a_72 <= 11
 c115: y_a_73 + 23 x_a_73 <= 23
 c116: y_a_74 + 36 x_a_74 <= 36
 c117: y_a_75 + 20 x_a_75 <= 20
 c118: y_a_76 + 12 x_a_76 <= 12
 c119: y_a_77 + 17 x_a_77 <= 17
 c120: y_a_78 + 26 x_a_78 <= 26
 c121: y_a_79 + 31 x_a_79 <= 31
 c122: y_a_80 + 39 x_a_80 <= 39
 c123: y_a_81 + 10 x_a_81 <= 10
 c124: y_a_82 + 11 x_a_82 <= 11
 c125: y_a_83 + 7 x_a_83 <= 7
 c126: y_a_84 + 4 x_a_84 <= 4
 c127: y_a_85 + 9 x_a_85 <= 9
 c128: y_a_86 + 50000000 x_a_86 <= 50000000
 c129: y_a_87 + 50000000 x_a_87 <= 50000000
 c130: y_a_88 + 50000000 x_a_88 <= 50000000
 c131: y_a_89 + 50000000 x_a_89 <= 50000000
 c132: y_a_90 + 50000000 x_a_90 <= 50000000
 c133: y_a_91 + 50000000 x_a_91 <= 50000000
 c134: y_a_92 + 50000000 x_a_92 <= 50000000
 c135: y_a_93 + 50000000 x_a_93 <= 50000000
 c136: y_a_94 + 50000000 x_a_94 <= 50000000
 c137: y_a_95 + 50000000 x_a_95 <= 50000000
 c138: y_a_96 + 50000000 x_a_96 <= 50000000
 c139: y_a_97 + 50000000 x_a_97 <= 50000000
 c140: y_a_98 + 50000000 x_a_98 <= 50000000
 c141: y_a_99 + 50000000 x_a_99 <= 50000000
 c142: y_a_100 + 50000000 x_a_100 <= 50000000
 c143: y_a_101 + 50000000 x_a_101 <= 50000000
 c144: y_a_102 + 10000 x_a_102 <= 10000
Bounds
 0 <= y_a_86 <= 50000000
 0 <= y_a_87 <= 50000000
 0 <= y_a_88 <= 50000000
 0 <= y_a_89 <= 50000000
 0 <= y_a_90 <= 50000000
 0 <= y_a_91 <= 50000000
 0 <= y_a_92 <= 50000000
 0 <= y_a_93 <= 50000000
 0 <= y_a_0 <= 35
 0 <= y_a_1 <= 19
 0 <= y_a_2 <= 8
 0 <= y_a_3 <= 44
 0 <= y_a_4 <= 3
 0 <= y_a_5 <= 44
 0 <= y_a_6 <= 37
 0 <= y_a_7 <= 31
 0 <= y_a_8 <= 35
 0 <= y_a_9 <= 13
 0 <= y_a_10 <= 18
 0 <= y_a_11 <= 44
 0 <= y_a_12 <= 27
 0 <= y_a_13 <= 24
 0 <= y_a_14 <= 29
 0 <= y_a_15 <= 36
 0 <= y_a_16 <= 45
 0 <= y_a_17 <= 44
 0 <= y_a_18 <= 35
 0 <= y_a_19 <= 48
 0 <= y_a_20 <= 27
 0 <= y_a_21 <= 7
 0 <= y_a_22 <= 30
 0 <= y_a_23 <= 9
 0 <= y_a_24 <= 31
 0 <= y_a_25 <= 21
 0 <= y_a_26 <= 2
 0 <= y_a_27 <= 46
 0 <= y_a_28 <= 37
 0 <= y_a_29 <= 33
 0 <= y_a_30 <= 11
 0 <= y_a_31 <= 35
 0 <= y_a_32 <= 34
 0 <= y_a_33 <= 45
 0 <= y_a_94 <= 50000000
 0 <= y_a_95 <= 50000000
 0 <= y_a_34 <= 49
 0 <= y_a_35 <= 21
 0 <= y_a_36 <= 43
 0 <= y_a_37 <= 25
 0 <= y_a_38 <= 45
 0 <= y_a_39 <= 39
 0 <= y_a_40 <= 2
 0 <= y_a_41 <= 18
 0 <= y_a_42 <= 42
 0 <= y_a_43 <= 38
 0 <= y_a_44 <= 6
 0 <= y_a_45 <= 49
 0 <= y_a_46 <= 44
 0 <= y_a_47 <= 38
 0 <= y_a_48 <= 7
 0 <= y_a_49 <= 46
 0 <= y_a_50 <= 7
 0 <= y_a_51 <= 15
 0 <= y_a_52 <= 24
 0 <= y_a_53 <= 7
 0 <= y_a_54 <= 17
 0 <= y_a_101 <= 50000000
 0 <= y_a_55 <= 33
 0 <= y_a_56 <= 49
 0 <= y_a_57 <= 21
 0 <= y_a_58 <= 38
 0 <= y_a_59 <= 36
 0 <= y_a_60 <= 38
 0 <= y_a_61 <= 44
 0 <= y_a_62 <= 13
 0 <= y_a_63 <= 34
 0 <= y_a_64 <= 26
 0 <= y_a_65 <= 2
 0 <= y_a_66 <= 11
 0 <= y_a_67 <= 48
 0 <= y_a_68 <= 40
 0 <= y_a_69 <= 34
 0 <= y_a_70 <= 39
 0 <= y_a_71 <= 42
 0 <= y_a_72 <= 11
 0 <= y_a_98 <= 50000000
 0 <= y_a_100 <= 50000000
 0 <= y_a_73 <= 23
 0 <= y_a_74 <= 36
 0 <= y_a_75 <= 20
 0 <= y_a_76 <= 12
 0 <= y_a_77 <= 17
 0 <= y_a_78 <= 26
 0 <= y_a_79 <= 31
 0 <= y_a_96 <= 50000000
 0 <= y_a_80 <= 39
 0 <= y_a_81 <= 10
 0 <= y_a_82 <= 11
 0 <= y_a_97 <= 50000000
 0 <= y_a_83 <= 7
 0 <= y_a_99 <= 50000000
 0 <= y_a_84 <= 4
 0 <= y_a_85 <= 9
 0 <= y_a_102 <= 10000
 0 <= x_a_0 <= 1
 0 <= x_a_1 <= 1
 0 <= x_a_2 <= 1
 0 <= x_a_3 <= 1
 0 <= x_a_4 <= 1
 0 <= x_a_5 <= 1
 0 <= x_a_6 <= 1
 0 <= x_a_7 <= 1
 0 <= x_a_8 <= 1
 0 <= x_a_9 <= 1
 0 <= x_a_10 <= 1
 0 <= x_a_11 <= 1
 0 <= x_a_12 <= 1
 0 <= x_a_13 <= 1
 0 <= x_a_14 <= 1
 0 <= x_a_15 <= 1
 0 <= x_a_16 <= 1
 0 <= x_a_17 <= 1
 0 <= x_a_18 <= 1
 0 <= x_a_19 <= 1
 0 <= x_a_20 <= 1
 0 <= x_a_21 <= 1
 0 <= x_a_22 <= 1
 0 <= x_a_23 <= 1
 0 <= x_a_24 <= 1
 0 <= x_a_25 <= 1
 0 <= x_a_26 <= 1
 0 <= x_a_27 <= 1
 0 <= x_a_28 <= 1
 0 <= x_a_29 <= 1
 0 <= x_a_30 <= 1
 0 <= x_a_31 <= 1
 0 <= x_a_32 <= 1
 0 <= x_a_33 <= 1
 0 <= x_a_34 <= 1
 0 <= x_a_35 <= 1
 0 <= x_a_36 <= 1
 0 <= x_a_37 <= 1
 0 <= x_a_38 <= 1
 0 <= x_a_39 <= 1
 0 <= x_a_40 <= 1
 0 <= x_a_41 <= 1
 0 <= x_a_42 <= 1
 0 <= x_a_43 <= 1
 0 <= x_a_44 <= 1
 0 <= x_a_45 <= 1
 0 <= x_a_46 <= 1
 0 <= x_a_47 <= 1
 0 <= x_a_48 <= 1
 0 <= x_a_49 <= 1
 0 <= x_a_50 <= 1
 0 <= x_a_51 <= 1
 0 <= x_a_52 <= 1
 0 <= x_a_53 <= 1
 0 <= x_a_54 <= 1
 0 <= x_a_55 <= 1
 0 <= x_a_56 <= 1
 0 <= x_a_57 <= 1
 0 <= x_a_58 <= 1
 0 <= x_a_59 <= 1
 0 <= x_a_60 <= 1
 0 <= x_a_61 <= 1
 0 <= x_a_62 <= 1
 0 <= x_a_63 <= 1
 0 <= x_a_64 <= 1
 0 <= x_a_65 <= 1
 0 <= x_a_66 <= 1
 0 <= x_a_67 <= 1
 0 <= x_a_68 <= 1
 0 <= x_a_69 <= 1
 0 <= x_a_70 <= 1
 0 <= x_a_71 <= 1
 0 <= x_a_72 <= 1
 0 <= x_a_73 <= 1
 0 <= x_a_74 <= 1
 0 <= x_a_75 <= 1
 0 <= x_a_76 <= 1
 0 <= x_a_77 <= 1
 0 <= x_a_78 <= 1
 0 <= x_a_79 <= 1
 0 <= x_a_80 <= 1
 0 <= x_a_81 <= 1
 0 <= x_a_82 <= 1
 0 <= x_a_83 <= 1
 0 <= x_a_84 <= 1
 0 <= x_a_85 <= 1
 0 <= x_a_86 <= 1
 0 <= x_a_87 <= 1
 0 <= x_a_88 <= 1
 0 <= x_a_89 <= 1
 0 <= x_a_90 <= 1
 0 <= x_a_91 <= 1
 0 <= x_a_92 <= 1
 0 <= x_a_93 <= 1
 0 <= x_a_94 <= 1
 0 <= x_a_95 <= 1
 0 <= x_a_96 <= 1
 0 <= x_a_97 <= 1
 0 <= x_a_98 <= 1
 0 <= x_a_99 <= 1
 0 <= x_a_100 <= 1
 0 <= x_a_101 <= 1
 0 <= x_a_102 <= 1
Binaries
 x_a_0  x_a_1  x_a_2  x_a_3  x_a_4  x_a_5  x_a_6  x_a_7  x_a_8  x_a_9  x_a_10 
 x_a_11  x_a_12  x_a_13  x_a_14  x_a_15  x_a_16  x_a_17  x_a_18  x_a_19 
 x_a_20  x_a_21  x_a_22  x_a_23  x_a_24  x_a_25  x_a_26  x_a_27  x_a_28 
 x_a_29  x_a_30  x_a_31  x_a_32  x_a_33  x_a_34  x_a_35  x_a_36  x_a_37 
 x_a_38  x_a_39  x_a_40  x_a_41  x_a_42  x_a_43  x_a_44  x_a_45  x_a_46 
 x_a_47  x_a_48  x_a_49  x_a_50  x_a_51  x_a_52  x_a_53  x_a_54  x_a_55 
 x_a_56  x_a_57  x_a_58  x_a_59  x_a_60  x_a_61  x_a_62  x_a_63  x_a_64 
 x_a_65  x_a_66  x_a_67  x_a_68  x_a_69  x_a_70  x_a_71  x_a_72  x_a_73 
 x_a_74  x_a_75  x_a_76  x_a_77  x_a_78  x_a_79  x_a_80  x_a_81  x_a_82 
 x_a_83  x_a_84  x_a_85  x_a_86  x_a_87  x_a_88  x_a_89  x_a_90  x_a_91 
 x_a_92  x_a_93  x_a_94  x_a_95  x_a_96  x_a_97  x_a_98  x_a_99  x_a_100 
 x_a_101  x_a_102 
Generals
 y_a_86  y_a_87  y_a_88  y_a_89  y_a_90  y_a_91  y_a_92  y_a_93  y_a_0  y_a_1 
 y_a_2  y_a_3  y_a_4  y_a_5  y_a_6  y_a_7  y_a_8  y_a_9  y_a_10  y_a_11 
 y_a_12  y_a_13  y_a_14  y_a_15  y_a_16  y_a_17  y_a_18  y_a_19  y_a_20 
 y_a_21  y_a_22  y_a_23  y_a_24  y_a_25  y_a_26  y_a_27  y_a_28  y_a_29 
 y_a_30  y_a_31  y_a_32  y_a_33  y_a_94  y_a_95  y_a_34  y_a_35  y_a_36 
 y_a_37  y_a_38  y_a_39  y_a_40  y_a_41  y_a_42  y_a_43  y_a_44  y_a_45 
 y_a_46  y_a_47  y_a_48  y_a_49  y_a_50  y_a_51  y_a_52  y_a_53  y_a_54 
 y_a_101  y_a_55  y_a_56  y_a_57  y_a_58  y_a_59  y_a_60  y_a_61  y_a_62 
 y_a_63  y_a_64  y_a_65  y_a_66  y_a_67  y_a_68  y_a_69  y_a_70  y_a_71 
 y_a_72  y_a_98  y_a_100  y_a_73  y_a_74  y_a_75  y_a_76  y_a_77  y_a_78 
 y_a_79  y_a_96  y_a_80  y_a_81  y_a_82  y_a_97  y_a_83  y_a_99  y_a_84 
 y_a_85  y_a_102 
End
